
Gurobi 11.0.3 (linux64) logging started Mon Dec 15 14:39:45 2025

Set parameter LogFile to value "./log/train/IS_800_5/IS_1.lp.log"
Set parameter TimeLimit to value 3600
Gurobi Optimizer version 11.0.3 build v11.0.3rc0 (linux64 - "Ubuntu 22.04.5 LTS")

CPU model: AMD Ryzen 9 9900X 12-Core Processor, instruction set [SSE2|AVX|AVX2|AVX512]
Thread count: 12 physical cores, 24 logical processors, using up to 24 threads

Optimize a model with 4109 rows, 800 columns and 8058 nonzeros
Model fingerprint: 0xe227ebff
Variable types: 0 continuous, 800 integer (800 binary)
Coefficient statistics:
  Matrix range     [1e+00, 1e+00]
  Objective range  [1e+00, 1e+00]
  Bounds range     [1e+00, 1e+00]
  RHS range        [1e+00, 1e+00]
Found heuristic solution: objective 200.0000000
Presolve removed 939 rows and 0 columns
Presolve time: 0.01s
Presolved: 3170 rows, 800 columns, 7095 nonzeros
Variable types: 0 continuous, 800 integer (800 binary)

Root relaxation: objective 3.660000e+02, 1370 iterations, 0.03 seconds (0.06 work units)

    Nodes    |    Current Node    |     Objective Bounds      |     Work
 Expl Unexpl |  Obj  Depth IntInf | Incumbent    BestBd   Gap | It/Node Time

     0     0  366.00000    0  694  200.00000  366.00000  83.0%     -    0s
H    0     0                     307.0000000  366.00000  19.2%     -    0s
H    0     0                     320.0000000  366.00000  14.4%     -    0s
     0     0  360.06153    0  784  320.00000  360.06153  12.5%     -    0s
H    0     0                     327.0000000  360.06153  10.1%     -    0s
H    0     0                     328.0000000  360.06153  9.77%     -    0s
     0     0  356.64612    0  781  328.00000  356.64612  8.73%     -    0s
     0     0  356.48706    0  782  328.00000  356.48706  8.69%     -    0s
     0     0  355.88019    0  782  328.00000  355.88019  8.50%     -    0s
     0     0  355.87861    0  782  328.00000  355.87861  8.50%     -    0s
     0     0  355.87861    0  782  328.00000  355.87861  8.50%     -    0s
     0     0  355.87861    0  782  328.00000  355.87861  8.50%     -    0s
     0     0  353.64580    0  782  328.00000  353.64580  7.82%     -    0s
     0     0  353.44203    0  783  328.00000  353.44203  7.76%     -    0s
     0     0  353.38436    0  785  328.00000  353.38436  7.74%     -    0s
     0     0  353.37938    0  783  328.00000  353.37938  7.74%     -    0s
     0     0  353.37929    0  784  328.00000  353.37929  7.74%     -    0s
     0     0  351.68570    0  783  328.00000  351.68570  7.22%     -    0s
     0     0  351.60269    0  784  328.00000  351.60269  7.20%     -    0s
     0     0  351.57317    0  782  328.00000  351.57317  7.19%     -    0s
     0     0  351.57191    0  784  328.00000  351.57191  7.19%     -    0s
     0     0  350.57053    0  780  328.00000  350.57053  6.88%     -    0s
     0     0  350.42278    0  783  328.00000  350.42278  6.84%     -    0s
     0     0  350.42044    0  781  328.00000  350.42044  6.84%     -    0s
     0     0  349.42345    0  783  328.00000  349.42345  6.53%     -    0s
     0     0  349.30286    0  782  328.00000  349.30286  6.49%     -    0s
     0     0  349.29863    0  785  328.00000  349.29863  6.49%     -    0s
     0     0  349.01324    0  785  328.00000  349.01324  6.41%     -    0s
     0     0  348.94672    0  783  328.00000  348.94672  6.39%     -    0s
     0     0  348.93266    0  785  328.00000  348.93266  6.38%     -    0s
     0     0  348.92342    0  785  328.00000  348.92342  6.38%     -    0s
     0     0  348.92009    0  784  328.00000  348.92009  6.38%     -    0s
     0     0  348.51114    0  789  328.00000  348.51114  6.25%     -    0s
     0     0  348.46630    0  788  328.00000  348.46630  6.24%     -    1s
     0     0  348.46153    0  786  328.00000  348.46153  6.24%     -    1s
     0     0  348.23101    0  790  328.00000  348.23101  6.17%     -    1s
     0     0  348.20235    0  788  328.00000  348.20235  6.16%     -    1s
     0     0  348.19556    0  789  328.00000  348.19556  6.16%     -    1s
     0     0  348.19468    0  789  328.00000  348.19468  6.16%     -    1s
     0     0  348.14446    0  787  328.00000  348.14446  6.14%     -    1s
     0     0  348.08001    0  788  328.00000  348.08001  6.12%     -    1s
     0     0  348.06829    0  788  328.00000  348.06829  6.12%     -    1s
     0     0  348.06763    0  788  328.00000  348.06763  6.12%     -    1s
     0     0  347.95871    0  789  328.00000  347.95871  6.08%     -    1s
     0     0  347.94304    0  786  328.00000  347.94304  6.08%     -    1s
     0     0  347.93910    0  786  328.00000  347.93910  6.08%     -    1s
     0     0  347.86256    0  789  328.00000  347.86256  6.06%     -    1s
     0     0  347.84580    0  790  328.00000  347.84580  6.05%     -    1s
     0     0  347.84143    0  791  328.00000  347.84143  6.05%     -    1s
     0     0  347.71684    0  787  328.00000  347.71684  6.01%     -    1s
     0     0  347.70491    0  787  328.00000  347.70491  6.01%     -    1s
     0     0  347.70348    0  788  328.00000  347.70348  6.01%     -    1s
     0     0  347.67408    0  786  328.00000  347.67408  6.00%     -    1s
     0     0  347.67408    0  786  328.00000  347.67408  6.00%     -    1s
H    0     0                     329.0000000  347.67408  5.68%     -    1s
     0     2  347.67408    0  786  329.00000  347.67408  5.68%     -    1s
H   27    38                     330.0000000  347.36940  5.26%   966    2s
H   29    38                     331.0000000  347.36837  4.95%   924    2s
H   77    56                     332.0000000  347.36837  4.63%   562    2s
H   92    64                     333.0000000  347.36837  4.31%   523    2s
H  130    63                     334.0000000  347.36837  4.00%   470    2s
H  284   150                     335.0000000  347.36837  3.69%   421    3s
   423   223  339.65794   22  714  335.00000  347.36837  3.69%   384    6s
  2333  1164  339.45402    8  738  335.00000  342.32531  2.19%   297   10s
  2916  1369  337.12343   10  783  335.00000  341.86712  2.05%   290   15s
  2925  1375  338.65593   41  791  335.00000  341.86712  2.05%   289   20s
  3179  1569  341.86712   19  779  335.00000  341.86712  2.05%   322   25s
  4208  1978  339.99566   32  755  335.00000  341.86712  2.05%   357   30s
  7266  2508  340.02573   19  734  335.00000  341.86712  2.05%   334   35s
 11013  3767  338.16494   22  711  335.00000  340.69196  1.70%   321   40s
 13766  4378  336.46032   30  713  335.00000  339.96222  1.48%   315   45s
 17936  4637     cutoff   27       335.00000  339.01866  1.20%   314   50s
 21791  3424     cutoff   42       335.00000  338.04659  0.91%   311   55s

Cutting planes:
  Gomory: 1
  Clique: 1
  Zero half: 372
  RLT: 164
  BQP: 49

Explored 26861 nodes (7700901 simplex iterations) in 57.82 seconds (144.55 work units)
Thread count was 24 (of 24 available processors)

Solution count 10: 335 334 333 ... 320

Optimal solution found (tolerance 1.00e-04)
Best objective 3.350000000000e+02, best bound 3.350000000000e+02, gap 0.0000%

User-callback calls 60970, time in user-callback 0.04 sec
